p edge 400 1951
e 1 2 1
e 1 400 1
e 1 3 1
e 1 399 1
e 1 4 1
e 1 398 1
e 1 62 1
e 1 30 1
e 1 234 1
e 1 154 1
e 1 235 1
e 2 3 1
e 2 4 1
e 2 400 1
e 2 5 1
e 2 399 1
e 2 196 1
e 2 302 1
e 2 201 1
e 2 386 1
e 2 204 1
e 2 227 1
e 3 4 1
e 3 5 1
e 3 6 1
e 3 400 1
e 3 34 1
e 3 8 1
e 3 380 1
e 3 390 1
e 4 5 1
e 4 6 1
e 4 7 1
e 4 361 1
e 5 6 1
e 5 7 1
e 5 8 1
e 5 192 1
e 5 133 1
e 5 130 1
e 6 7 1
e 6 8 1
e 6 9 1
e 6 266 1
e 6 99 1
e 6 71 1
e 6 72 1
e 6 310 1
e 7 8 1
e 7 9 1
e 7 10 1
e 7 202 1
e 7 377 1
e 7 90 1
e 7 230 1
e 7 233 1
e 7 321 1
e 8 9 1
e 8 10 1
e 8 11 1
e 8 386 1
e 8 52 1
e 8 88 1
e 8 341 1
e 8 344 1
e 9 10 1
e 9 11 1
e 9 12 1
e 9 77 1
e 9 201 1
e 9 251 1
e 9 291 1
e 10 11 1
e 10 12 1
e 10 13 1
e 10 118 1
e 10 175 1
e 10 246 1
e 11 12 1
e 11 13 1
e 11 14 1
e 11 224 1
e 12 13 1
e 12 14 1
e 12 15 1
e 12 127 1
e 12 285 1
e 12 390 1
e 12 225 1
e 13 14 1
e 13 15 1
e 13 16 1
e 13 338 1
e 13 99 1
e 14 15 1
e 14 16 1
e 14 17 1
e 14 253 1
e 14 329 1
e 14 356 1
e 15 16 1
e 15 17 1
e 15 18 1
e 15 225 1
e 15 389 1
e 16 17 1
e 16 18 1
e 16 19 1
e 16 112 1
e 16 148 1
e 16 247 1
e 17 18 1
e 17 19 1
e 17 20 1
e 17 227 1
e 17 285 1
e 17 289 1
e 18 19 1
e 18 20 1
e 18 21 1
e 18 81 1
e 18 23 1
e 19 20 1
e 19 21 1
e 19 22 1
e 19 64 1
e 19 38 1
e 19 350 1
e 19 242 1
e 19 296 1
e 19 317 1
e 19 341 1
e 20 21 1
e 20 22 1
e 20 23 1
e 20 83 1
e 20 194 1
e 20 26 1
e 20 39 1
e 20 111 1
e 21 22 1
e 21 23 1
e 21 24 1
e 21 227 1
e 21 68 1
e 21 223 1
e 22 23 1
e 22 24 1
e 22 25 1
e 22 223 1
e 22 368 1
e 22 348 1
e 23 24 1
e 23 25 1
e 23 26 1
e 23 52 1
e 23 277 1
e 24 25 1
e 24 26 1
e 24 27 1
e 24 43 1
e 24 218 1
e 24 398 1
e 25 26 1
e 25 27 1
e 25 28 1
e 25 108 1
e 25 266 1
e 26 27 1
e 26 28 1
e 26 29 1
e 26 114 1
e 26 147 1
e 26 378 1
e 27 28 1
e 27 29 1
e 27 30 1
e 27 350 1
e 27 206 1
e 27 233 1
e 27 124 1
e 27 200 1
e 28 29 1
e 28 30 1
e 28 31 1
e 28 323 1
e 28 46 1
e 28 86 1
e 28 186 1
e 29 30 1
e 29 31 1
e 29 32 1
e 29 168 1
e 29 118 1
e 30 31 1
e 30 32 1
e 30 33 1
e 30 182 1
e 30 364 1
e 30 333 1
e 30 340 1
e 30 352 1
e 31 32 1
e 31 33 1
e 31 34 1
e 31 112 1
e 31 356 1
e 32 33 1
e 32 34 1
e 32 35 1
e 32 42 1
e 32 36 1
e 32 69 1
e 32 325 1
e 33 34 1
e 33 35 1
e 33 36 1
e 33 41 1
e 33 234 1
e 33 163 1
e 34 35 1
e 34 36 1
e 34 37 1
e 34 257 1
e 34 62 1
e 34 179 1
e 34 269 1
e 35 36 1
e 35 37 1
e 35 38 1
e 35 240 1
e 35 203 1
e 35 282 1
e 35 60 1
e 35 337 1
e 35 346 1
e 36 37 1
e 36 38 1
e 36 39 1
e 36 193 1
e 37 38 1
e 37 39 1
e 37 40 1
e 37 347 1
e 37 392 1
e 37 102 1
e 37 145 1
e 38 39 1
e 38 40 1
e 38 41 1
e 38 247 1
e 38 299 1
e 38 160 1
e 38 212 1
e 39 40 1
e 39 41 1
e 39 42 1
e 39 66 1
e 39 208 1
e 39 127 1
e 39 211 1
e 40 41 1
e 40 42 1
e 40 43 1
e 40 69 1
e 40 198 1
e 40 268 1
e 41 42 1
e 41 43 1
e 41 44 1
e 41 270 1
e 41 357 1
e 41 310 1
e 41 144 1
e 42 43 1
e 42 44 1
e 42 45 1
e 42 372 1
e 42 70 1
e 42 138 1
e 42 240 1
e 42 257 1
e 43 44 1
e 43 45 1
e 43 46 1
e 43 389 1
e 44 45 1
e 44 46 1
e 44 47 1
e 44 99 1
e 44 223 1
e 44 69 1
e 44 322 1
e 45 46 1
e 45 47 1
e 45 48 1
e 45 90 1
e 45 136 1
e 45 332 1
e 46 47 1
e 46 48 1
e 46 49 1
e 46 349 1
e 47 48 1
e 47 49 1
e 47 50 1
e 47 89 1
e 47 381 1
e 47 85 1
e 47 149 1
e 47 299 1
e 48 49 1
e 48 50 1
e 48 51 1
e 48 168 1
e 48 386 1
e 48 217 1
e 49 50 1
e 49 51 1
e 49 52 1
e 49 152 1
e 49 185 1
e 49 268 1
e 50 51 1
e 50 52 1
e 50 53 1
e 50 290 1
e 50 145 1
e 50 196 1
e 50 328 1
e 51 52 1
e 51 53 1
e 51 54 1
e 51 309 1
e 51 311 1
e 51 367 1
e 52 53 1
e 52 54 1
e 52 55 1
e 52 70 1
e 52 191 1
e 53 54 1
e 53 55 1
e 53 56 1
e 53 246 1
e 53 243 1
e 53 388 1
e 54 55 1
e 54 56 1
e 54 57 1
e 54 71 1
e 54 108 1
e 54 199 1
e 55 56 1
e 55 57 1
e 55 58 1
e 55 228 1
e 55 251 1
e 55 244 1
e 55 298 1
e 56 57 1
e 56 58 1
e 56 59 1
e 56 101 1
e 56 149 1
e 56 370 1
e 57 58 1
e 57 59 1
e 57 60 1
e 57 372 1
e 57 286 1
e 57 335 1
e 57 348 1
e 58 59 1
e 58 60 1
e 58 61 1
e 58 168 1
e 58 112 1
e 58 361 1
e 59 60 1
e 59 61 1
e 59 62 1
e 59 197 1
e 59 115 1
e 59 215 1
e 59 75 1
e 59 195 1
e 60 61 1
e 60 62 1
e 60 63 1
e 60 289 1
e 60 371 1
e 60 128 1
e 60 188 1
e 60 363 1
e 60 372 1
e 61 62 1
e 61 63 1
e 61 64 1
e 61 123 1
e 61 232 1
e 61 281 1
e 61 187 1
e 61 349 1
e 61 351 1
e 61 382 1
e 62 63 1
e 62 64 1
e 62 65 1
e 62 392 1
e 62 105 1
e 62 83 1
e 62 113 1
e 63 64 1
e 63 65 1
e 63 66 1
e 63 239 1
e 63 245 1
e 63 378 1
e 63 279 1
e 63 294 1
e 64 65 1
e 64 66 1
e 64 67 1
e 64 397 1
e 64 78 1
e 65 66 1
e 65 67 1
e 65 68 1
e 65 398 1
e 65 361 1
e 65 94 1
e 65 305 1
e 66 67 1
e 66 68 1
e 66 69 1
e 66 161 1
e 66 383 1
e 66 287 1
e 66 378 1
e 67 68 1
e 67 69 1
e 67 70 1
e 68 69 1
e 68 70 1
e 68 71 1
e 68 393 1
e 68 394 1
e 68 283 1
e 68 278 1
e 68 287 1
e 69 70 1
e 69 71 1
e 69 72 1
e 69 86 1
e 69 202 1
e 70 71 1
e 70 72 1
e 70 73 1
e 70 161 1
e 71 72 1
e 71 73 1
e 71 74 1
e 71 264 1
e 71 237 1
e 71 182 1
e 71 219 1
e 71 272 1
e 71 379 1
e 72 73 1
e 72 74 1
e 72 75 1
e 72 142 1
e 72 162 1
e 72 391 1
e 73 74 1
e 73 75 1
e 73 76 1
e 73 116 1
e 73 172 1
e 73 89 1
e 73 195 1
e 74 75 1
e 74 76 1
e 74 77 1
e 74 371 1
e 74 86 1
e 74 196 1
e 74 304 1
e 74 314 1
e 75 76 1
e 75 77 1
e 75 78 1
e 75 221 1
e 75 119 1
e 75 275 1
e 75 389 1
e 76 77 1
e 76 78 1
e 76 79 1
e 76 242 1
e 76 119 1
e 77 78 1
e 77 79 1
e 77 80 1
e 77 332 1
e 77 398 1
e 77 159 1
e 77 173 1
e 77 235 1
e 77 252 1
e 78 79 1
e 78 80 1
e 78 81 1
e 78 230 1
e 78 379 1
e 78 156 1
e 79 80 1
e 79 81 1
e 79 82 1
e 79 230 1
e 79 158 1
e 79 276 1
e 80 81 1
e 80 82 1
e 80 83 1
e 80 318 1
e 80 389 1
e 80 107 1
e 80 386 1
e 81 82 1
e 81 83 1
e 81 84 1
e 81 133 1
e 81 224 1
e 81 232 1
e 82 83 1
e 82 84 1
e 82 85 1
e 82 397 1
e 82 279 1
e 82 210 1
e 82 228 1
e 83 84 1
e 83 85 1
e 83 86 1
e 83 271 1
e 83 131 1
e 83 146 1
e 83 170 1
e 83 215 1
e 83 395 1
e 84 85 1
e 84 86 1
e 84 87 1
e 84 316 1
e 84 183 1
e 84 189 1
e 85 86 1
e 85 87 1
e 85 88 1
e 86 87 1
e 86 88 1
e 86 89 1
e 86 147 1
e 86 253 1
e 86 399 1
e 87 88 1
e 87 89 1
e 87 90 1
e 87 155 1
e 87 271 1
e 87 379 1
e 87 398 1
e 88 89 1
e 88 90 1
e 88 91 1
e 88 374 1
e 89 90 1
e 89 91 1
e 89 92 1
e 89 355 1
e 89 148 1
e 89 178 1
e 89 333 1
e 90 91 1
e 90 92 1
e 90 93 1
e 90 152 1
e 91 92 1
e 91 93 1
e 91 94 1
e 91 201 1
e 91 249 1
e 92 93 1
e 92 94 1
e 92 95 1
e 92 183 1
e 92 113 1
e 92 306 1
e 92 347 1
e 93 94 1
e 93 95 1
e 93 96 1
e 93 293 1
e 93 302 1
e 93 220 1
e 93 367 1
e 94 95 1
e 94 96 1
e 94 97 1
e 94 288 1
e 94 104 1
e 95 96 1
e 95 97 1
e 95 98 1
e 95 270 1
e 95 317 1
e 95 254 1
e 95 164 1
e 95 282 1
e 96 97 1
e 96 98 1
e 96 99 1
e 96 330 1
e 96 325 1
e 96 336 1
e 96 388 1
e 97 98 1
e 97 99 1
e 97 100 1
e 97 162 1
e 97 301 1
e 98 99 1
e 98 100 1
e 98 101 1
e 98 185 1
e 98 317 1
e 98 333 1
e 99 100 1
e 99 101 1
e 99 102 1
e 99 227 1
e 99 208 1
e 100 101 1
e 100 102 1
e 100 103 1
e 100 143 1
e 100 388 1
e 100 200 1
e 101 102 1
e 101 103 1
e 101 104 1
e 101 153 1
e 101 273 1
e 102 103 1
e 102 104 1
e 102 105 1
e 102 231 1
e 102 287 1
e 103 104 1
e 103 105 1
e 103 106 1
e 103 251 1
e 103 276 1
e 103 187 1
e 103 210 1
e 103 230 1
e 104 105 1
e 104 106 1
e 104 107 1
e 104 329 1
e 104 239 1
e 104 254 1
e 104 266 1
e 104 285 1
e 105 106 1
e 105 107 1
e 105 108 1
e 105 280 1
e 105 336 1
e 106 107 1
e 106 108 1
e 106 109 1
e 106 118 1
e 106 328 1
e 107 108 1
e 107 109 1
e 107 110 1
e 107 239 1
e 107 343 1
e 107 357 1
e 108 109 1
e 108 110 1
e 108 111 1
e 108 367 1
e 108 363 1
e 109 110 1
e 109 111 1
e 109 112 1
e 109 229 1
e 109 301 1
e 109 345 1
e 110 111 1
e 110 112 1
e 110 113 1
e 110 390 1
e 110 354 1
e 111 112 1
e 111 113 1
e 111 114 1
e 111 173 1
e 111 214 1
e 111 208 1
e 111 331 1
e 112 113 1
e 112 114 1
e 112 115 1
e 112 329 1
e 112 284 1
e 112 325 1
e 112 339 1
e 113 114 1
e 113 115 1
e 113 116 1
e 113 237 1
e 114 115 1
e 114 116 1
e 114 117 1
e 114 196 1
e 115 116 1
e 115 117 1
e 115 118 1
e 115 161 1
e 115 231 1
e 115 206 1
e 115 277 1
e 115 328 1
e 116 117 1
e 116 118 1
e 116 119 1
e 116 239 1
e 117 118 1
e 117 119 1
e 117 120 1
e 117 121 1
e 117 167 1
e 118 119 1
e 118 120 1
e 118 121 1
e 118 212 1
e 118 148 1
e 119 120 1
e 119 121 1
e 119 122 1
e 119 193 1
e 119 207 1
e 119 323 1
e 119 358 1
e 120 121 1
e 120 122 1
e 120 123 1
e 120 173 1
e 120 200 1
e 120 128 1
e 120 185 1
e 120 214 1
e 120 305 1
e 121 122 1
e 121 123 1
e 121 124 1
e 121 385 1
e 121 337 1
e 121 141 1
e 121 299 1
e 121 344 1
e 122 123 1
e 122 124 1
e 122 125 1
e 122 227 1
e 122 218 1
e 122 226 1
e 122 335 1
e 122 343 1
e 123 124 1
e 123 125 1
e 123 126 1
e 123 132 1
e 123 385 1
e 124 125 1
e 124 126 1
e 124 127 1
e 124 378 1
e 124 373 1
e 125 126 1
e 125 127 1
e 125 128 1
e 125 253 1
e 125 278 1
e 125 213 1
e 126 127 1
e 126 128 1
e 126 129 1
e 126 297 1
e 127 128 1
e 127 129 1
e 127 130 1
e 127 397 1
e 127 169 1
e 127 219 1
e 127 306 1
e 127 393 1
e 128 129 1
e 128 130 1
e 128 131 1
e 128 155 1
e 128 180 1
e 129 130 1
e 129 131 1
e 129 132 1
e 129 239 1
e 129 232 1
e 129 292 1
e 129 251 1
e 129 380 1
e 130 131 1
e 130 132 1
e 130 133 1
e 130 136 1
e 130 326 1
e 131 132 1
e 131 133 1
e 131 134 1
e 131 206 1
e 131 396 1
e 131 162 1
e 131 256 1
e 132 133 1
e 132 134 1
e 132 135 1
e 132 363 1
e 132 184 1
e 132 260 1
e 132 158 1
e 133 134 1
e 133 135 1
e 133 136 1
e 133 262 1
e 133 189 1
e 134 135 1
e 134 136 1
e 134 137 1
e 134 342 1
e 134 381 1
e 134 389 1
e 135 136 1
e 135 137 1
e 135 138 1
e 135 300 1
e 135 188 1
e 136 137 1
e 136 138 1
e 136 139 1
e 136 215 1
e 137 138 1
e 137 139 1
e 137 140 1
e 137 144 1
e 137 214 1
e 137 278 1
e 138 139 1
e 138 140 1
e 138 141 1
e 139 140 1
e 139 141 1
e 139 142 1
e 139 181 1
e 139 166 1
e 140 141 1
e 140 142 1
e 140 143 1
e 140 235 1
e 140 274 1
e 140 368 1
e 140 396 1
e 141 142 1
e 141 143 1
e 141 144 1
e 141 185 1
e 141 254 1
e 141 192 1
e 142 143 1
e 142 144 1
e 142 145 1
e 142 314 1
e 142 168 1
e 142 303 1
e 143 144 1
e 143 145 1
e 143 146 1
e 143 351 1
e 143 291 1
e 143 173 1
e 143 310 1
e 144 145 1
e 144 146 1
e 144 147 1
e 145 146 1
e 145 147 1
e 145 148 1
e 145 291 1
e 146 147 1
e 146 148 1
e 146 149 1
e 146 239 1
e 146 272 1
e 147 148 1
e 147 149 1
e 147 150 1
e 147 234 1
e 148 149 1
e 148 150 1
e 148 151 1
e 149 150 1
e 149 151 1
e 149 152 1
e 149 370 1
e 150 151 1
e 150 152 1
e 150 153 1
e 150 342 1
e 151 152 1
e 151 153 1
e 151 154 1
e 151 204 1
e 151 301 1
e 152 153 1
e 152 154 1
e 152 155 1
e 152 236 1
e 152 288 1
e 153 154 1
e 153 155 1
e 153 156 1
e 153 314 1
e 153 328 1
e 153 213 1
e 154 155 1
e 154 156 1
e 154 157 1
e 154 178 1
e 154 173 1
e 155 156 1
e 155 157 1
e 155 158 1
e 155 369 1
e 155 183 1
e 156 157 1
e 156 158 1
e 156 159 1
e 156 305 1
e 156 356 1
e 157 158 1
e 157 159 1
e 157 160 1
e 157 283 1
e 158 159 1
e 158 160 1
e 158 161 1
e 158 165 1
e 158 255 1
e 158 276 1
e 159 160 1
e 159 161 1
e 159 162 1
e 159 276 1
e 159 323 1
e 160 161 1
e 160 162 1
e 160 163 1
e 160 306 1
e 160 192 1
e 160 262 1
e 160 263 1
e 161 162 1
e 161 163 1
e 161 164 1
e 161 183 1
e 162 163 1
e 162 164 1
e 162 165 1
e 162 231 1
e 163 164 1
e 163 165 1
e 163 166 1
e 163 353 1
e 163 387 1
e 163 192 1
e 163 206 1
e 164 165 1
e 164 166 1
e 164 167 1
e 164 292 1
e 164 277 1
e 165 166 1
e 165 167 1
e 165 168 1
e 165 194 1
e 165 206 1
e 166 167 1
e 166 168 1
e 166 169 1
e 166 294 1
e 166 343 1
e 167 168 1
e 167 169 1
e 167 170 1
e 167 195 1
e 167 275 1
e 167 225 1
e 168 169 1
e 168 170 1
e 168 171 1
e 168 219 1
e 168 243 1
e 168 386 1
e 168 292 1
e 169 170 1
e 169 171 1
e 169 172 1
e 169 246 1
e 170 171 1
e 170 172 1
e 170 173 1
e 170 365 1
e 170 219 1
e 171 172 1
e 171 173 1
e 171 174 1
e 171 187 1
e 171 257 1
e 171 207 1
e 171 263 1
e 172 173 1
e 172 174 1
e 172 175 1
e 172 219 1
e 172 245 1
e 172 347 1
e 173 174 1
e 173 175 1
e 173 176 1
e 173 216 1
e 174 175 1
e 174 176 1
e 174 177 1
e 174 225 1
e 174 280 1
e 175 176 1
e 175 177 1
e 175 178 1
e 175 214 1
e 175 194 1
e 176 177 1
e 176 178 1
e 176 179 1
e 176 316 1
e 176 260 1
e 176 265 1
e 177 178 1
e 177 179 1
e 177 180 1
e 177 274 1
e 177 249 1
e 178 179 1
e 178 180 1
e 178 181 1
e 178 214 1
e 178 280 1
e 178 338 1
e 179 180 1
e 179 181 1
e 179 182 1
e 179 213 1
e 179 369 1
e 180 181 1
e 180 182 1
e 180 183 1
e 180 218 1
e 180 304 1
e 180 245 1
e 180 382 1
e 181 182 1
e 181 183 1
e 181 184 1
e 181 196 1
e 181 261 1
e 181 304 1
e 182 183 1
e 182 184 1
e 182 185 1
e 182 358 1
e 182 231 1
e 183 184 1
e 183 185 1
e 183 186 1
e 183 394 1
e 183 395 1
e 184 185 1
e 184 186 1
e 184 187 1
e 184 293 1
e 184 377 1
e 185 186 1
e 185 187 1
e 185 188 1
e 185 334 1
e 186 187 1
e 186 188 1
e 186 189 1
e 186 254 1
e 186 318 1
e 186 396 1
e 187 188 1
e 187 189 1
e 187 190 1
e 187 391 1
e 187 264 1
e 188 189 1
e 188 190 1
e 188 191 1
e 188 221 1
e 188 305 1
e 188 330 1
e 189 190 1
e 189 191 1
e 189 192 1
e 189 196 1
e 189 302 1
e 190 191 1
e 190 192 1
e 190 193 1
e 190 259 1
e 191 192 1
e 191 193 1
e 191 194 1
e 191 258 1
e 191 197 1
e 192 193 1
e 192 194 1
e 192 195 1
e 192 241 1
e 192 320 1
e 193 194 1
e 193 195 1
e 193 196 1
e 193 379 1
e 194 195 1
e 194 196 1
e 194 197 1
e 194 308 1
e 194 373 1
e 195 196 1
e 195 197 1
e 195 198 1
e 195 270 1
e 196 197 1
e 196 198 1
e 196 199 1
e 196 386 1
e 197 198 1
e 197 199 1
e 197 200 1
e 197 370 1
e 197 269 1
e 197 291 1
e 198 199 1
e 198 200 1
e 198 201 1
e 198 391 1
e 199 200 1
e 199 201 1
e 199 202 1
e 200 201 1
e 200 202 1
e 200 203 1
e 200 288 1
e 200 311 1
e 201 202 1
e 201 203 1
e 201 204 1
e 202 203 1
e 202 204 1
e 202 205 1
e 202 218 1
e 203 204 1
e 203 205 1
e 203 206 1
e 203 246 1
e 204 205 1
e 204 206 1
e 204 207 1
e 205 206 1
e 205 207 1
e 205 208 1
e 205 376 1
e 206 207 1
e 206 208 1
e 206 209 1
e 206 333 1
e 207 208 1
e 207 209 1
e 207 210 1
e 208 209 1
e 208 210 1
e 208 211 1
e 208 255 1
e 208 239 1
e 209 210 1
e 209 211 1
e 209 212 1
e 209 397 1
e 209 368 1
e 210 211 1
e 210 212 1
e 210 213 1
e 210 240 1
e 211 212 1
e 211 213 1
e 211 214 1
e 211 275 1
e 211 289 1
e 212 213 1
e 212 214 1
e 212 215 1
e 212 270 1
e 212 323 1
e 213 214 1
e 213 215 1
e 213 216 1
e 213 274 1
e 214 215 1
e 214 216 1
e 214 217 1
e 214 343 1
e 215 216 1
e 215 217 1
e 215 218 1
e 216 217 1
e 216 218 1
e 216 219 1
e 216 316 1
e 216 349 1
e 217 218 1
e 217 219 1
e 217 220 1
e 217 239 1
e 218 219 1
e 218 220 1
e 218 221 1
e 219 220 1
e 219 221 1
e 219 222 1
e 219 346 1
e 220 221 1
e 220 222 1
e 220 223 1
e 220 359 1
e 220 229 1
e 221 222 1
e 221 223 1
e 221 224 1
e 221 301 1
e 222 223 1
e 222 224 1
e 222 225 1
e 222 303 1
e 222 338 1
e 222 267 1
e 222 276 1
e 223 224 1
e 223 225 1
e 223 226 1
e 223 382 1
e 223 300 1
e 223 281 1
e 224 225 1
e 224 226 1
e 224 227 1
e 224 330 1
e 224 339 1
e 224 370 1
e 225 226 1
e 225 227 1
e 225 228 1
e 225 271 1
e 225 368 1
e 226 227 1
e 226 228 1
e 226 229 1
e 226 302 1
e 227 228 1
e 227 229 1
e 227 230 1
e 227 243 1
e 227 391 1
e 227 295 1
e 227 378 1
e 228 229 1
e 228 230 1
e 228 231 1
e 228 241 1
e 229 230 1
e 229 231 1
e 229 232 1
e 229 324 1
e 229 311 1
e 230 231 1
e 230 232 1
e 230 233 1
e 230 277 1
e 230 308 1
e 231 232 1
e 231 233 1
e 231 234 1
e 231 253 1
e 232 233 1
e 232 234 1
e 232 235 1
e 232 272 1
e 233 234 1
e 233 235 1
e 233 236 1
e 233 249 1
e 233 345 1
e 234 235 1
e 234 236 1
e 234 237 1
e 234 318 1
e 235 236 1
e 235 237 1
e 235 238 1
e 236 237 1
e 236 238 1
e 236 239 1
e 236 353 1
e 236 371 1
e 237 238 1
e 237 239 1
e 237 240 1
e 237 352 1
e 238 239 1
e 238 240 1
e 238 241 1
e 238 279 1
e 238 264 1
e 239 240 1
e 239 241 1
e 239 242 1
e 240 241 1
e 240 242 1
e 240 243 1
e 240 244 1
e 241 242 1
e 241 243 1
e 241 244 1
e 241 338 1
e 241 288 1
e 241 266 1
e 242 243 1
e 242 244 1
e 242 245 1
e 242 373 1
e 243 244 1
e 243 245 1
e 243 246 1
e 243 304 1
e 244 245 1
e 244 246 1
e 244 247 1
e 244 292 1
e 245 246 1
e 245 247 1
e 245 248 1
e 245 363 1
e 245 250 1
e 245 271 1
e 245 383 1
e 245 387 1
e 246 247 1
e 246 248 1
e 246 249 1
e 246 315 1
e 247 248 1
e 247 249 1
e 247 250 1
e 248 249 1
e 248 250 1
e 248 251 1
e 248 378 1
e 248 393 1
e 248 313 1
e 249 250 1
e 249 251 1
e 249 252 1
e 249 319 1
e 250 251 1
e 250 252 1
e 250 253 1
e 250 389 1
e 250 355 1
e 251 252 1
e 251 253 1
e 251 254 1
e 252 253 1
e 252 254 1
e 252 255 1
e 252 381 1
e 253 254 1
e 253 255 1
e 253 256 1
e 253 324 1
e 254 255 1
e 254 256 1
e 254 257 1
e 254 358 1
e 254 399 1
e 255 256 1
e 255 257 1
e 255 258 1
e 255 327 1
e 256 257 1
e 256 258 1
e 256 259 1
e 256 319 1
e 257 258 1
e 257 259 1
e 257 260 1
e 257 330 1
e 258 259 1
e 258 260 1
e 258 261 1
e 258 339 1
e 258 319 1
e 258 340 1
e 258 302 1
e 258 330 1
e 259 260 1
e 259 261 1
e 259 262 1
e 260 261 1
e 260 262 1
e 260 263 1
e 261 262 1
e 261 263 1
e 261 264 1
e 262 263 1
e 262 264 1
e 262 265 1
e 262 328 1
e 262 340 1
e 262 367 1
e 263 264 1
e 263 265 1
e 263 266 1
e 263 363 1
e 264 265 1
e 264 266 1
e 264 267 1
e 264 388 1
e 264 374 1
e 264 316 1
e 265 266 1
e 265 267 1
e 265 268 1
e 265 333 1
e 265 302 1
e 265 385 1
e 266 267 1
e 266 268 1
e 266 269 1
e 266 380 1
e 267 268 1
e 267 269 1
e 267 270 1
e 267 293 1
e 268 269 1
e 268 270 1
e 268 271 1
e 269 270 1
e 269 271 1
e 269 272 1
e 269 397 1
e 270 271 1
e 270 272 1
e 270 273 1
e 270 310 1
e 271 272 1
e 271 273 1
e 271 274 1
e 271 321 1
e 272 273 1
e 272 274 1
e 272 275 1
e 272 385 1
e 273 274 1
e 273 275 1
e 273 276 1
e 273 343 1
e 274 275 1
e 274 276 1
e 274 277 1
e 274 377 1
e 275 276 1
e 275 277 1
e 275 278 1
e 276 277 1
e 276 278 1
e 276 279 1
e 276 384 1
e 277 278 1
e 277 279 1
e 277 280 1
e 277 383 1
e 278 279 1
e 278 280 1
e 278 281 1
e 278 283 1
e 279 280 1
e 279 281 1
e 279 282 1
e 279 290 1
e 279 369 1
e 280 281 1
e 280 282 1
e 280 283 1
e 281 282 1
e 281 283 1
e 281 284 1
e 281 343 1
e 281 313 1
e 282 283 1
e 282 284 1
e 282 285 1
e 283 284 1
e 283 285 1
e 283 286 1
e 284 285 1
e 284 286 1
e 284 287 1
e 284 290 1
e 285 286 1
e 285 287 1
e 285 288 1
e 286 287 1
e 286 288 1
e 286 289 1
e 286 308 1
e 287 288 1
e 287 289 1
e 287 290 1
e 287 375 1
e 288 289 1
e 288 290 1
e 288 291 1
e 289 290 1
e 289 291 1
e 289 292 1
e 290 291 1
e 290 292 1
e 290 293 1
e 291 292 1
e 291 293 1
e 291 294 1
e 292 293 1
e 292 294 1
e 292 295 1
e 292 388 1
e 293 294 1
e 293 295 1
e 293 296 1
e 294 295 1
e 294 296 1
e 294 297 1
e 294 324 1
e 295 296 1
e 295 297 1
e 295 298 1
e 296 297 1
e 296 298 1
e 296 299 1
e 296 375 1
e 297 298 1
e 297 299 1
e 297 300 1
e 297 340 1
e 298 299 1
e 298 300 1
e 298 301 1
e 298 371 1
e 298 350 1
e 299 300 1
e 299 301 1
e 299 302 1
e 299 390 1
e 300 301 1
e 300 302 1
e 300 303 1
e 300 381 1
e 301 302 1
e 301 303 1
e 301 304 1
e 302 303 1
e 302 304 1
e 302 305 1
e 303 304 1
e 303 305 1
e 303 306 1
e 303 358 1
e 303 331 1
e 304 305 1
e 304 306 1
e 304 307 1
e 304 330 1
e 304 334 1
e 305 306 1
e 305 307 1
e 305 308 1
e 306 307 1
e 306 308 1
e 306 309 1
e 306 355 1
e 307 308 1
e 307 309 1
e 307 310 1
e 307 392 1
e 308 309 1
e 308 310 1
e 308 311 1
e 309 310 1
e 309 311 1
e 309 312 1
e 309 379 1
e 309 352 1
e 310 311 1
e 310 312 1
e 310 313 1
e 310 341 1
e 311 312 1
e 311 313 1
e 311 314 1
e 312 313 1
e 312 314 1
e 312 315 1
e 312 326 1
e 313 314 1
e 313 315 1
e 313 316 1
e 314 315 1
e 314 316 1
e 314 317 1
e 315 316 1
e 315 317 1
e 315 318 1
e 315 386 1
e 316 317 1
e 316 318 1
e 316 319 1
e 316 381 1
e 317 318 1
e 317 319 1
e 317 320 1
e 318 319 1
e 318 320 1
e 318 321 1
e 318 350 1
e 318 387 1
e 319 320 1
e 319 321 1
e 319 322 1
e 319 392 1
e 319 370 1
e 319 394 1
e 320 321 1
e 320 322 1
e 320 323 1
e 320 361 1
e 321 322 1
e 321 323 1
e 321 324 1
e 321 342 1
e 322 323 1
e 322 324 1
e 322 325 1
e 322 345 1
e 322 382 1
e 323 324 1
e 323 325 1
e 323 326 1
e 323 360 1
e 324 325 1
e 324 326 1
e 324 327 1
e 325 326 1
e 325 327 1
e 325 328 1
e 325 364 1
e 326 327 1
e 326 328 1
e 326 329 1
e 327 328 1
e 327 329 1
e 327 330 1
e 327 363 1
e 328 329 1
e 328 330 1
e 328 331 1
e 329 330 1
e 329 331 1
e 329 332 1
e 329 358 1
e 330 331 1
e 330 332 1
e 330 333 1
e 330 380 1
e 331 332 1
e 331 333 1
e 331 334 1
e 332 333 1
e 332 334 1
e 332 335 1
e 333 334 1
e 333 335 1
e 333 336 1
e 334 335 1
e 334 336 1
e 334 337 1
e 335 336 1
e 335 337 1
e 335 338 1
e 336 337 1
e 336 338 1
e 336 339 1
e 337 338 1
e 337 339 1
e 337 340 1
e 338 339 1
e 338 340 1
e 338 341 1
e 338 351 1
e 339 340 1
e 339 341 1
e 339 342 1
e 339 375 1
e 340 341 1
e 340 342 1
e 340 343 1
e 341 342 1
e 341 343 1
e 341 344 1
e 341 364 1
e 342 343 1
e 342 344 1
e 342 345 1
e 343 344 1
e 343 345 1
e 343 346 1
e 344 345 1
e 344 346 1
e 344 347 1
e 345 346 1
e 345 347 1
e 345 348 1
e 345 362 1
e 345 397 1
e 346 347 1
e 346 348 1
e 346 349 1
e 346 397 1
e 347 348 1
e 347 349 1
e 347 350 1
e 347 398 1
e 348 349 1
e 348 350 1
e 348 351 1
e 349 350 1
e 349 351 1
e 349 352 1
e 349 374 1
e 350 351 1
e 350 352 1
e 350 353 1
e 350 398 1
e 351 352 1
e 351 353 1
e 351 354 1
e 351 363 1
e 351 360 1
e 352 353 1
e 352 354 1
e 352 355 1
e 352 359 1
e 353 354 1
e 353 355 1
e 353 356 1
e 354 355 1
e 354 356 1
e 354 357 1
e 355 356 1
e 355 357 1
e 355 358 1
e 355 368 1
e 355 372 1
e 356 357 1
e 356 358 1
e 356 359 1
e 357 358 1
e 357 359 1
e 357 360 1
e 358 359 1
e 358 360 1
e 358 361 1
e 358 381 1
e 359 360 1
e 359 361 1
e 359 362 1
e 360 361 1
e 360 362 1
e 360 363 1
e 360 383 1
e 360 384 1
e 361 362 1
e 361 363 1
e 361 364 1
e 362 363 1
e 362 364 1
e 362 365 1
e 363 364 1
e 363 365 1
e 363 366 1
e 364 365 1
e 364 366 1
e 364 367 1
e 365 366 1
e 365 367 1
e 365 368 1
e 366 367 1
e 366 368 1
e 366 369 1
e 367 368 1
e 367 369 1
e 367 370 1
e 367 376 1
e 368 369 1
e 368 370 1
e 368 371 1
e 369 370 1
e 369 371 1
e 369 372 1
e 370 371 1
e 370 372 1
e 370 373 1
e 371 372 1
e 371 373 1
e 371 374 1
e 372 373 1
e 372 374 1
e 372 375 1
e 373 374 1
e 373 375 1
e 373 376 1
e 374 375 1
e 374 376 1
e 374 377 1
e 375 376 1
e 375 377 1
e 375 378 1
e 376 377 1
e 376 378 1
e 376 379 1
e 376 381 1
e 377 378 1
e 377 379 1
e 377 380 1
e 378 379 1
e 378 380 1
e 378 381 1
e 379 380 1
e 379 381 1
e 379 382 1
e 379 390 1
e 380 381 1
e 380 382 1
e 380 383 1
e 381 382 1
e 381 383 1
e 381 384 1
e 382 383 1
e 382 384 1
e 382 385 1
e 382 390 1
e 383 384 1
e 383 385 1
e 383 386 1
e 384 385 1
e 384 386 1
e 384 387 1
e 385 386 1
e 385 387 1
e 385 388 1
e 386 387 1
e 386 388 1
e 386 389 1
e 387 388 1
e 387 389 1
e 387 390 1
e 388 389 1
e 388 390 1
e 388 391 1
e 388 400 1
e 389 390 1
e 389 391 1
e 389 392 1
e 390 391 1
e 390 392 1
e 390 393 1
e 391 392 1
e 391 393 1
e 391 394 1
e 392 393 1
e 392 394 1
e 392 395 1
e 393 394 1
e 393 395 1
e 393 396 1
e 394 395 1
e 394 396 1
e 394 397 1
e 395 396 1
e 395 397 1
e 395 398 1
e 396 397 1
e 396 398 1
e 396 399 1
e 397 398 1
e 397 399 1
e 397 400 1
e 398 399 1
e 398 400 1
e 399 400 1